data/solutions/planning/wellformed/intermediate/highest_rank_objective/wellformed_intermediate_instance58_cplex.sol
Elapsed time: 51.02
Nodes explored: 133424
Nodes left: -
Relative gap: -
Upper bound: 1053268108.0
Lower bound: -
C[0]=64292.0
C[1]=64290.0
C[2]=64288.0
C[3]=64287.0
C[4]=64286.0
C[5]=64286.0
C[6]=64286.0
C[7]=64286.0
C[8]=64285.0
C[9]=64285.0
C[10]=64285.0
C[11]=64283.0
C[12]=64281.0
C[13]=64278.0
y[0]=8
y[1]=5
y[2]=11
y[3]=0
y[4]=4
y[5]=2
y[6]=10
y[7]=5
y[8]=0
y[9]=0
y[10]=0
y[11]=0
y[12]=0
y[13]=10
y[14]=1
y[15]=10
y[16]=6
y[17]=6
y[18]=1
y[19]=9
y[20]=13
y[21]=1
y[22]=6
y[23]=7
y[24]=13
y[25]=12
y[26]=11
y[27]=4
y[28]=0
y[29]=0
y[30]=2
y[31]=3
y[32]=11
y[33]=0
y[34]=8
y[35]=0
y[36]=6
y[37]=9
y[38]=8
y[39]=1
y[40]=5
y[41]=1
y[42]=2
y[43]=10
y[44]=3
y[45]=9
y[46]=7
y[47]=10
y[48]=3
y[49]=9
y[50]=0
y[51]=0
y[52]=6
y[53]=9
y[54]=1
y[55]=11
y[56]=13
y[57]=12
y[58]=9
y[59]=13
y[60]=1
y[61]=0
y[62]=8
y[63]=12
y[64]=12
y[65]=10
y[66]=1
y[67]=3
y[68]=0
y[69]=6
y[70]=3
y[71]=3
y[72]=7
y[73]=1
y[74]=5
y[75]=2
y[76]=6
y[77]=1
y[78]=7
y[79]=8
y[80]=2
y[81]=7
y[82]=11
y[83]=4
y[84]=0
y[85]=9
y[86]=0
y[87]=8
y[88]=10
y[89]=8
y[90]=8
y[91]=5
y[92]=2
y[93]=8
y[94]=10
y[95]=0
y[96]=13
y[97]=2
y[98]=4
y[99]=12
y[100]=11
y[101]=1
y[102]=2
y[103]=1
y[104]=6
y[105]=11
y[106]=1
y[107]=2
y[108]=2
y[109]=11
y[110]=4
y[111]=4
y[112]=4
y[113]=11
y[114]=1
y[115]=7
y[116]=7
y[117]=7
y[118]=9
y[119]=3
y[120]=8
y[121]=8
y[122]=0
y[123]=5
y[124]=4
y[125]=0
y[126]=8
y[127]=10
y[128]=9
y[129]=4
y[130]=4
y[131]=9
y[132]=8
y[133]=0
y[134]=10
y[135]=11
y[136]=2
y[137]=3
y[138]=9
y[139]=4
y[140]=12
y[141]=13
y[142]=0
y[143]=12
y[144]=11
y[145]=9
y[146]=13
y[147]=13
y[148]=13
y[149]=6
y[150]=1
y[151]=0
y[152]=7
y[153]=1
y[154]=3
y[155]=11
y[156]=10
y[157]=0
y[158]=13
y[159]=8
y[160]=6
y[161]=1
y[162]=3
y[163]=12
y[164]=6
y[165]=3
y[166]=1
y[167]=5
y[168]=3
y[169]=3
y[170]=10
y[171]=4
y[172]=13
y[173]=1
y[174]=5
y[175]=7
y[176]=1
y[177]=5
y[178]=1
y[179]=4
y[180]=10
y[181]=8
y[182]=2
y[183]=6
y[184]=0
y[185]=3
y[186]=0
y[187]=3
y[188]=3
y[189]=7
y[190]=11
y[191]=4
y[192]=9
y[193]=9
y[194]=12
y[195]=9
y[196]=2
y[197]=0
y[198]=1
y[199]=5
