data/solutions/planning/wellformed/intermediate/highest_rank_objective/wellformed_intermediate_instance58_cplex.log
Found incumbent of value 899998.000000 after 0.00 sec. (0.23 ticks)
Tried aggregator 2 times.
Aggregator did 14 substitutions.
Reduced MIP has 214 rows, 2801 columns, and 5614 nonzeros.
Reduced MIP has 2800 binaries, 0 generals, 0 SOSs, and 0 indicators.
Presolve time = 0.01 sec. (4.58 ticks)
Tried aggregator 1 time.
Reduced MIP has 214 rows, 2801 columns, and 5614 nonzeros.
Reduced MIP has 2800 binaries, 1 generals, 0 SOSs, and 0 indicators.
Presolve time = 0.00 sec. (3.06 ticks)
Probing time = 0.00 sec. (1.98 ticks)
Clique table members: 200.
MIP emphasis: balance optimality and feasibility.
MIP search method: dynamic search.
Parallel mode: none, using 1 thread.
Root relaxation solution time = 0.01 sec. (9.26 ticks)

        Nodes                                         Cuts/
   Node  Left     Objective  IInf  Best Integer    Best Bound    ItCnt     Gap

*     0+    0                       899998.0000        0.0000           100.00%
      0     0    64285.5714    27   899998.0000    64285.5714      229   92.86%
*     0+    0                        69457.0000    64285.5714             7.45%
      0     0    64286.0000    27    69457.0000       Cuts: 7      254    7.44%
*     0+    0                        68962.0000    64286.0000             6.78%
      0     0    64286.0000    29    68962.0000      Cuts: 27      315    6.78%
*     0+    0                        67978.0000    64286.0000             5.43%
*     0+    0                        67620.0000    64286.0000             4.93%
*     0+    0                        67517.0000    64286.0000             4.79%
*     0+    0                        67515.0000    64286.0000             4.78%
*     0+    0                        67255.0000    64286.0000             4.41%
*     0+    0                        65890.0000    64286.0000             2.43%
*     0+    0                        65569.0000    64286.0000             1.96%
*     0+    0                        65161.0000    64286.0000             1.34%
*     0+    0                        65122.0000    64286.0000             1.28%
*     0+    0                        65004.0000    64286.0000             1.10%
*     0+    0                        64871.0000    64286.0000             0.90%
      0     2    64286.0000    25    64871.0000    64286.0000      319    0.90%
Elapsed time = 0.20 sec. (215.46 ticks, tree = 0.01 MB, solutions = 14)
    300   302    64286.0000    23    64871.0000    64286.0000     1878    0.90%
    301   303    64286.0000    22    64871.0000    64286.0000     1880    0.90%
    302   304    64286.0000    23    64871.0000    64286.0000     1882    0.90%
    303   305    64286.0000    24    64871.0000    64286.0000     1888    0.90%
    304   306    64286.0000    23    64871.0000    64286.0000     1889    0.90%
    305   307    64286.0000    22    64871.0000    64286.0000     1891    0.90%
    306   308    64286.0000    22    64871.0000    64286.0000     1893    0.90%
    307   309    64286.0000    22    64871.0000    64286.0000     1894    0.90%
    308   310    64286.0000    22    64871.0000    64286.0000     1895    0.90%
*   320+  320                        64851.0000    64286.0000             0.87%
*   350+  346                        64789.0000    64286.0000             0.78%
*   514+  508                        64778.0000    64286.0000             0.76%
*   514+  504                        64715.0000    64286.0000             0.66%
*   514+  502                        64657.0000    64286.0000             0.57%
*   515+  503                        64635.0000    64286.0000             0.54%
    554   524    64286.0000    22    64635.0000    64286.0000     3313    0.54%
Elapsed time = 0.95 sec. (1169.89 ticks, tree = 2.21 MB, solutions = 20)
*   857+  568                        64601.0000    64286.0000             0.49%
*   917+  529                        64539.0000    64286.0000             0.39%
*   927+  488                        64508.0000    64286.0000             0.34%
   1039   537    64286.0000    19    64508.0000    64286.0000     5590    0.34%
   1040   537    64286.0000    21    64508.0000    64286.0000     5601    0.34%
   1041   537    64286.0000    21    64508.0000    64286.0000     5603    0.34%
   1042   537    64286.0000    22    64508.0000    64286.0000     5605    0.34%
   1043   537    64286.0000    22    64508.0000    64286.0000     5607    0.34%
   1044   537    64286.0000    22    64508.0000    64286.0000     5609    0.34%
   1045   537    64286.0000    22    64508.0000    64286.0000     5611    0.34%
   1046   538    64286.0000    22    64508.0000    64286.0000     5614    0.34%
   1047   539    64286.0000    21    64508.0000    64286.0000     5617    0.34%
   1048   540    64286.0000    21    64508.0000    64286.0000     5625    0.34%
Elapsed time = 1.65 sec. (2140.10 ticks, tree = 2.20 MB, solutions = 23)
*  1517+  959                        64464.0000    64286.0000             0.28%
*  1547+  983                        64419.0000    64286.0000             0.21%
*  1567+  993                        64407.0000    64286.0000             0.19%
   1637  1060    64286.0000    24    64407.0000    64286.0000     9400    0.19%
   1638  1061    64286.0000    24    64407.0000    64286.0000     9401    0.19%
   1639  1062    64286.0000    24    64407.0000    64286.0000     9402    0.19%
   1640  1063    64286.0000    24    64407.0000    64286.0000     9403    0.19%
   1641  1064    64286.0000    23    64407.0000    64286.0000     9406    0.19%
   1642  1065    64286.0000    23    64407.0000    64286.0000     9407    0.19%
   1643  1066    64286.0000    24    64407.0000    64286.0000     9409    0.19%
   1644  1067    64286.0000    23    64407.0000    64286.0000     9418    0.19%
   1645  1068    64286.0000    24    64407.0000    64286.0000     9426    0.19%
   1646  1069    64286.0000    22    64407.0000    64286.0000     9434    0.19%
Elapsed time = 2.36 sec. (3107.05 ticks, tree = 4.43 MB, solutions = 26)
*  1917+ 1330                        64406.0000    64286.0000             0.19%
*  2117+ 1305                        64394.0000    64286.0000             0.17%
*  2294  1475      integral     0    64383.0000    64286.0000    13089    0.15%
*  2297+ 1368                        64359.0000    64286.0000             0.11%
   2298  1368    64286.0000    18    64359.0000    64286.0000    13097    0.11%
   2299  1369    64286.0000    18    64359.0000    64286.0000    13119    0.11%
   2300  1370    64286.0000    18    64359.0000    64286.0000    13121    0.11%
   2301  1371    64286.0000    18    64359.0000    64286.0000    13135    0.11%
   2302  1372    64286.0000    18    64359.0000    64286.0000    13140    0.11%
   2303  1373    64286.0000    21    64359.0000    64286.0000    13153    0.11%
   2304  1374    64286.0000    20    64359.0000    64286.0000    13158    0.11%
   2305  1375    64286.0000    20    64359.0000    64286.0000    13171    0.11%
   2306  1376    64286.0000    21    64359.0000    64286.0000    13188    0.11%
   2307  1377    64286.0000    20    64359.0000    64286.0000    13190    0.11%
Elapsed time = 3.13 sec. (4072.53 ticks, tree = 5.65 MB, solutions = 30)
*  3256  2109      integral     0    64351.0000    64286.0000    18477    0.10%
   3293  2145    64286.0000    22    64351.0000    64286.0000    18718    0.10%
   3294  2146    64286.0000    22    64351.0000    64286.0000    18720    0.10%
   3295  2147    64286.0000    21    64351.0000    64286.0000    18729    0.10%
   3296  2148    64286.0000    20    64351.0000    64286.0000    18739    0.10%
   3297  2149    64286.0000    20    64351.0000    64286.0000    18747    0.10%
   3298  2150    64286.0000    19    64351.0000    64286.0000    18755    0.10%
   3299  2151    64286.0000    18    64351.0000    64286.0000    18768    0.10%
   3300  2152    64286.0000    20    64351.0000    64286.0000    18773    0.10%
   3301  2153    64286.0000    19    64351.0000    64286.0000    18779    0.10%
   3302  2154    64286.0000    19    64351.0000    64286.0000    18790    0.10%
Elapsed time = 3.91 sec. (5034.42 ticks, tree = 8.88 MB, solutions = 31)
   4812  3601    64322.1250    13    64351.0000    64286.0000    26130    0.10%
   4813  3602    64322.1250    13    64351.0000    64286.0000    26133    0.10%
   4814  3603    64322.1250    14    64351.0000    64286.0000    26134    0.10%
   4815  3604    64322.1250    13    64351.0000    64286.0000    26137    0.10%
   4816  3605    64322.1250    14    64351.0000    64286.0000    26141    0.10%
   4817  3606    64322.1250    13    64351.0000    64286.0000    26144    0.10%
   4818  3607    64322.1250    14    64351.0000    64286.0000    26148    0.10%
   4819  3608    64322.1250    14    64351.0000    64286.0000    26152    0.10%
   4820  3608    64322.1250    14    64351.0000    64286.0000    26153    0.10%
   4821  3609    64323.0000    13    64351.0000    64286.0000    26154    0.10%
Elapsed time = 4.56 sec. (5992.02 ticks, tree = 14.86 MB, solutions = 31)
*  5037  3328      integral     0    64336.0000    64286.0000    26868    0.08%
   6909  5110    64322.0000    11    64336.0000    64286.0000    35731    0.08%
   6910  5111    64322.0000    10    64336.0000    64286.0000    35739    0.08%
   6911  5112    64322.0000    11    64336.0000    64286.0000    35748    0.08%
   6912  5113    64322.0000    10    64336.0000    64286.0000    35756    0.08%
   6913  5114    64322.0000    13    64336.0000    64286.0000    35776    0.08%
   6914  5115    64322.0000    12    64336.0000    64286.0000    35778    0.08%
   6915  5116    64322.0000    11    64336.0000    64286.0000    35783    0.08%
   6916  5117    64322.0000    15    64336.0000    64286.0000    35799    0.08%
   6917  5118    64322.0000     8    64336.0000    64286.0000    35803    0.08%
   6918  5119    64322.0000     9    64336.0000    64286.0000    35808    0.08%
Elapsed time = 5.18 sec. (6950.50 ticks, tree = 21.18 MB, solutions = 32)
   8985  7094    64286.0000    17    64336.0000    64286.0000    45007    0.08%
   8986  7095    64286.0000    17    64336.0000    64286.0000    45010    0.08%
   8987  7096    64286.0000    17    64336.0000    64286.0000    45012    0.08%
   8988  7097    64286.0000    17    64336.0000    64286.0000    45013    0.08%
   8989  7098    64286.0000    19    64336.0000    64286.0000    45018    0.08%
   8990  7099    64286.0000    18    64336.0000    64286.0000    45020    0.08%
   8991  7100    64286.0000    18    64336.0000    64286.0000    45021    0.08%
   8992  7101    64286.0000    18    64336.0000    64286.0000    45022    0.08%
   8993  7102    64286.0000    18    64336.0000    64286.0000    45039    0.08%
   8994  7103    64286.0000    19    64336.0000    64286.0000    45041    0.08%
Elapsed time = 5.79 sec. (7909.28 ticks, tree = 29.38 MB, solutions = 32)
  10797  8823    64335.0000    11    64336.0000    64286.0000    52417    0.08%
  10798  8824    64286.0000    22    64336.0000    64286.0000    52439    0.08%
  10799  8825    64286.0000    17    64336.0000    64286.0000    52443    0.08%
  10800  8826    64286.0000    17    64336.0000    64286.0000    52448    0.08%
  10801  8827    64286.0000    17    64336.0000    64286.0000    52451    0.08%
  10802  8828    64286.0000    17    64336.0000    64286.0000    52454    0.08%
  10803  8829    64286.0000    17    64336.0000    64286.0000    52457    0.08%
  10804  8830    64286.0000    18    64336.0000    64286.0000    52461    0.08%
  10805  8831    64286.0000    18    64336.0000    64286.0000    52462    0.08%
  10806  8832    64286.0000    19    64336.0000    64286.0000    52481    0.08%
Elapsed time = 6.92 sec. (9452.57 ticks, tree = 36.73 MB, solutions = 32)
  12791 10741    64298.0000    17    64336.0000    64286.0000    60982    0.08%
  12792 10742    64298.0000    17    64336.0000    64286.0000    60983    0.08%
  12793 10743    64298.0000    17    64336.0000    64286.0000    60984    0.08%
  12794 10744    64298.0000    17    64336.0000    64286.0000    60985    0.08%
  12795 10745    64298.0000    17    64336.0000    64286.0000    60986    0.08%
  12796 10746    64298.0000    17    64336.0000    64286.0000    60987    0.08%
  12797 10747    64298.0000    17    64336.0000    64286.0000    60988    0.08%
  12798 10748    64298.0000    17    64336.0000    64286.0000    60989    0.08%
  12799 10749    64298.0000    17    64336.0000    64286.0000    60994    0.08%
  19864 17248    64297.0000    15    64336.0000    64286.0000    83361    0.08%
Elapsed time = 9.41 sec. (13267.34 ticks, tree = 71.90 MB, solutions = 32)
  30318 26854    64292.0000    13    64336.0000    64286.0000   104139    0.08%
  30319 26855    64292.0000    11    64336.0000    64286.0000   104140    0.08%
  30320 26856    64292.0000    12    64336.0000    64286.0000   104148    0.08%
  30321 26857    64292.0000    12    64336.0000    64286.0000   104149    0.08%
  30322 26858    64292.0000    12    64336.0000    64286.0000   104150    0.08%
  30323 26859    64292.0000    12    64336.0000    64286.0000   104151    0.08%
  30324 26860    64292.0000    12    64336.0000    64286.0000   104152    0.08%
  30325 26861    64292.0000    12    64336.0000    64286.0000   104153    0.08%
  30326 26862    64292.0000    12    64336.0000    64286.0000   104154    0.08%
  30327 26863    64292.0000    12    64336.0000    64286.0000   104155    0.08%
Elapsed time = 11.86 sec. (17085.16 ticks, tree = 111.86 MB, solutions = 32)
* 36378 26312      integral     0    64326.0000    64286.0000   114217    0.06%
  41208 30863    64319.0000     7    64326.0000    64286.0000   122504    0.06%
  41209 30862        cutoff          64326.0000    64286.0000   122506    0.06%
  41210 30863    64319.0000     7    64326.0000    64286.0000   122507    0.06%
  41211 30864    64319.0000     7    64326.0000    64286.0000   122508    0.06%
  41212 30863        cutoff          64326.0000    64286.0000   122510    0.06%
  41213 30864    64319.0000     7    64326.0000    64286.0000   122511    0.06%
  41214 30865    64319.0000     7    64326.0000    64286.0000   122512    0.06%
  41215 30864        cutoff          64326.0000    64286.0000   122515    0.06%
  41216 30863        cutoff          64326.0000    64286.0000   122519    0.06%
  41217 30864    64286.0000    14    64326.0000    64286.0000   122522    0.06%
Elapsed time = 14.33 sec. (20903.44 ticks, tree = 128.45 MB, solutions = 33)
* 47717+31259                        64319.0000    64286.0000             0.05%
* 47917+28149                        64314.0000    64286.0000             0.04%
  51674 31605    64305.0000    12    64314.0000    64286.0000   140400    0.04%
  51675 31606    64305.0000    12    64314.0000    64286.0000   140401    0.04%
  51676 31607    64305.0000    12    64314.0000    64286.0000   140402    0.04%
  51677 31608    64305.0000    12    64314.0000    64286.0000   140403    0.04%
  51678 31609    64305.0000    12    64314.0000    64286.0000   140404    0.04%
  51679 31610    64305.0000    12    64314.0000    64286.0000   140405    0.04%
  51680 31611    64305.0000    14    64314.0000    64286.0000   140407    0.04%
  51681 31612    64305.0000    16    64314.0000    64286.0000   140409    0.04%
  51682 31613    64305.0000    14    64314.0000    64286.0000   140411    0.04%
  51683 31614    64305.0000    16    64314.0000    64286.0000   140413    0.04%
Elapsed time = 16.98 sec. (24721.13 ticks, tree = 132.41 MB, solutions = 35)
  62202 41490    64313.0000    10    64314.0000    64286.0000   159247    0.04%
  62203 41491    64313.0000    11    64314.0000    64286.0000   159249    0.04%
  62204 41492    64313.0000    10    64314.0000    64286.0000   159252    0.04%
  62205 41493    64313.0000    10    64314.0000    64286.0000   159253    0.04%
  62206 41494    64313.0000    10    64314.0000    64286.0000   159255    0.04%
  62207 41495    64313.0000    10    64314.0000    64286.0000   159259    0.04%
  62208 41496    64313.0000    10    64314.0000    64286.0000   159260    0.04%
  62209 41497    64313.0000    10    64314.0000    64286.0000   159261    0.04%
  62210 41498    64313.0000    10    64314.0000    64286.0000   159262    0.04%
  62211 41498    64313.0000    10    64314.0000    64286.0000   159264    0.04%
Elapsed time = 19.58 sec. (28539.43 ticks, tree = 173.53 MB, solutions = 35)
  72769 51448    64312.0000     6    64314.0000    64286.0000   178210    0.04%
  72770 51448    64312.0000     6    64314.0000    64286.0000   178211    0.04%
  72771 51449    64312.0000     6    64314.0000    64286.0000   178213    0.04%
  72772 51448        cutoff          64314.0000    64286.0000   178217    0.04%
  72773 51449    64312.0000     6    64314.0000    64286.0000   178219    0.04%
  72774 51450    64312.0000     6    64314.0000    64286.0000   178220    0.04%
  72775 51451    64312.0000     6    64314.0000    64286.0000   178221    0.04%
  72776 51452    64312.0000     6    64314.0000    64286.0000   178222    0.04%
  72777 51453    64312.0000     6    64314.0000    64286.0000   178223    0.04%
  72778 51454    64312.0000     6    64314.0000    64286.0000   178224    0.04%
Elapsed time = 22.13 sec. (32357.11 ticks, tree = 214.94 MB, solutions = 35)
* 80117+54783                        64312.0000    64286.0000             0.04%
  82845 57337    64287.8571    17    64312.0000    64286.0000   194808    0.04%
  82846 57338    64287.8571    17    64312.0000    64286.0000   194810    0.04%
  82847 57339    64287.8571    17    64312.0000    64286.0000   194813    0.04%
  82848 57339    64287.8571    17    64312.0000    64286.0000   194814    0.04%
  82849 57340    64287.8571    17    64312.0000    64286.0000   194817    0.04%
  82850 57340    64288.3333    14    64312.0000    64286.0000   194819    0.04%
  82851 57341    64289.0000    13    64312.0000    64286.0000   194820    0.04%
  82852 57342    64289.0000    12    64312.0000    64286.0000   194821    0.04%
  82853 57343    64289.0000    13    64312.0000    64286.0000   194824    0.04%
  82854 57344    64289.0000    13    64312.0000    64286.0000   194825    0.04%
Elapsed time = 24.62 sec. (36175.04 ticks, tree = 239.55 MB, solutions = 36)
* 90507+53209                        64306.0000    64286.0000             0.03%
  92615 55107    64301.0000     7    64306.0000    64286.0000   211024    0.03%
  92616 55108    64301.0000     7    64306.0000    64286.0000   211025    0.03%
  92617 55109    64301.0000     7    64306.0000    64286.0000   211027    0.03%
  92618 55110    64301.0000     7    64306.0000    64286.0000   211029    0.03%
  92619 55111    64301.0000     7    64306.0000    64286.0000   211031    0.03%
  92620 55112    64301.0000     7    64306.0000    64286.0000   211032    0.03%
  92621 55113    64301.0000     8    64306.0000    64286.0000   211033    0.03%
  92622 55114    64301.0000     8    64306.0000    64286.0000   211034    0.03%
  92623 55115    64301.0000     8    64306.0000    64286.0000   211035    0.03%
  92624 55116    64301.0000     8    64306.0000    64286.0000   211036    0.03%
Elapsed time = 27.08 sec. (39993.06 ticks, tree = 230.46 MB, solutions = 37)
* 94217+46400                        64301.0000    64286.0000             0.02%
 102577 53893    64287.0000    11    64301.0000    64286.0000   227829    0.02%
 102578 53894    64287.0000    11    64301.0000    64286.0000   227830    0.02%
 102579 53895    64287.0000    11    64301.0000    64286.0000   227831    0.02%
 102580 53896    64287.0000    11    64301.0000    64286.0000   227832    0.02%
 102581 53897    64287.0000    11    64301.0000    64286.0000   227834    0.02%
 102582 53898    64288.5000    12    64301.0000    64286.0000   227836    0.02%
 102583 53899    64288.5000    12    64301.0000    64286.0000   227837    0.02%
 102584 53900    64288.5000    12    64301.0000    64286.0000   227838    0.02%
 102585 53901    64288.5000    13    64301.0000    64286.0000   227840    0.02%
 102586 53902    64288.5000    14    64301.0000    64286.0000   227841    0.02%
Elapsed time = 29.60 sec. (43812.08 ticks, tree = 225.46 MB, solutions = 38)
 112595 62935    64296.0000     8    64301.0000    64286.0000   244591    0.02%
 112596 62936    64296.0000     7    64301.0000    64286.0000   244595    0.02%
 112597 62937    64296.0000     7    64301.0000    64286.0000   244597    0.02%
 112598 62938    64296.0000     7    64301.0000    64286.0000   244598    0.02%
 112599 62939    64296.0000     7    64301.0000    64286.0000   244600    0.02%
 112600 62940    64296.0000     7    64301.0000    64286.0000   244601    0.02%
 112601 62941    64296.0000     9    64301.0000    64286.0000   244603    0.02%
 112602 62942    64296.0000     7    64301.0000    64286.0000   244604    0.02%
 112603 62943    64296.0000     7    64301.0000    64286.0000   244605    0.02%
 112604 62944    64296.0000     7    64301.0000    64286.0000   244607    0.02%
Elapsed time = 32.08 sec. (47629.52 ticks, tree = 263.16 MB, solutions = 38)
 122639 71643    64288.6000    13    64301.0000    64286.0000   261347    0.02%
 122640 71644    64288.6000    13    64301.0000    64286.0000   261348    0.02%
 122641 71645    64288.6000    13    64301.0000    64286.0000   261349    0.02%
 122642 71646    64288.6000    13    64301.0000    64286.0000   261350    0.02%
 122643 71647    64288.6000    13    64301.0000    64286.0000   261351    0.02%
 122644 71648    64288.6000    13    64301.0000    64286.0000   261352    0.02%
 122645 71649    64288.6000    13    64301.0000    64286.0000   261354    0.02%
 122646 71650    64288.6000    13    64301.0000    64286.0000   261355    0.02%
 122647 71651    64288.6000    13    64301.0000    64286.0000   261356    0.02%
 122648 71652    64288.6000    13    64301.0000    64286.0000   261357    0.02%
Elapsed time = 34.57 sec. (51447.04 ticks, tree = 301.41 MB, solutions = 38)
*132058 44182      integral     0    64293.0000    64286.0000   276100    0.01%
 132645 44654    64291.7500     9    64293.0000    64286.0000   276888    0.01%
 132646 44655    64291.7500     9    64293.0000    64286.0000   276889    0.01%
 132647 44656    64291.7500     9    64293.0000    64286.0000   276890    0.01%
 132648 44657    64291.7500     9    64293.0000    64286.0000   276891    0.01%
 132649 44658    64291.7500     9    64293.0000    64286.0000   276892    0.01%
 132650 44659    64291.7500     7    64293.0000    64286.0000   276894    0.01%
 132651 44660    64291.7500     7    64293.0000    64286.0000   276895    0.01%
 132652 44661    64291.7500     7    64293.0000    64286.0000   276897    0.01%
 132653 44662    64291.7500     7    64293.0000    64286.0000   276898    0.01%
 132654 44663    64291.7500     7    64293.0000    64286.0000   276899    0.01%
Elapsed time = 37.04 sec. (55266.27 ticks, tree = 188.90 MB, solutions = 39)
*133217+41611                        64292.0000    64286.0000             0.01%

Mixed integer rounding cuts applied:  1

Root node processing (before b&c):
  Real time             =    0.20 sec. (216.03 ticks)
Sequential b&c:
  Real time             =   36.99 sec. (55315.19 ticks)
                          ------------
Total (root+branch&cut) =   37.19 sec. (55531.22 ticks)

Populate: phase II 
Tried aggregator 2 times.
Aggregator did 14 substitutions.
Reduced MIP has 214 rows, 2801 columns, and 5614 nonzeros.
Reduced MIP has 2800 binaries, 0 generals, 0 SOSs, and 0 indicators.
Presolve time = 0.01 sec. (4.58 ticks)
Probing time = 0.00 sec. (1.98 ticks)
Clique table members: 200.
MIP emphasis: balance optimality and feasibility.
MIP search method: dynamic search.
Parallel mode: none, using 1 thread.
Root relaxation solution time = 0.01 sec. (9.26 ticks)

        Nodes                                         Cuts/
   Node  Left     Objective  IInf  Best Integer    Best Bound    ItCnt     Gap

*     0+    0                        64292.0000        0.0000           100.00%
      0     0    64285.5714    27    64292.0000    64285.5714      229    0.01%
      0     2    64286.0000    26    64292.0000    64286.0000      229    0.01%
Elapsed time = 0.25 sec. (215.72 ticks, tree = 0.01 MB, solutions = 67)
      1     3    64286.0000    24    64292.0000    64286.0000      234    0.01%
      2     4    64286.0000    23    64292.0000    64286.0000      247    0.01%
      3     5    64286.0000    21    64292.0000    64286.0000      260    0.01%
      4     6    64286.0000    23    64292.0000    64286.0000      268    0.01%
      5     7    64286.0000    22    64292.0000    64286.0000      271    0.01%
      6     8    64286.0000    22    64292.0000    64286.0000      272    0.01%
      7     9    64286.0000    22    64292.0000    64286.0000      278    0.01%
      8    10    64286.0000    21    64292.0000    64286.0000      283    0.01%
      9    11    64286.0000    22    64292.0000    64286.0000      289    0.01%
     10    12    64286.0000    21    64292.0000    64286.0000      296    0.01%
Elapsed time = 2.86 sec. (2613.36 ticks, tree = 0.04 MB, solutions = 242)
     31    33    64286.0000    21    64292.0000    64286.0000      396    0.01%
     32    34    64286.0000    20    64292.0000    64286.0000      400    0.01%
     33    35    64286.0000    21    64292.0000    64286.0000      403    0.01%
     34    36    64286.0000    20    64292.0000    64286.0000      410    0.01%
     35    37    64286.0000    20    64292.0000    64286.0000      415    0.01%
     36    38    64286.0000    20    64292.0000    64286.0000      423    0.01%
     37    39    64286.0000    21    64292.0000    64286.0000      429    0.01%
     38    40    64286.0000    21    64292.0000    64286.0000      435    0.01%
     39    41    64286.0000    21    64292.0000    64286.0000      450    0.01%
     40    42    64286.0000    21    64292.0000    64286.0000      455    0.01%
Elapsed time = 4.69 sec. (3969.30 ticks, tree = 0.16 MB, solutions = 573)
     63    65    64286.0000    20    64292.0000    64286.0000      588    0.01%
     64    66    64286.0000    19    64292.0000    64286.0000      595    0.01%
     65    67    64286.0000    20    64292.0000    64286.0000      601    0.01%
     66    68    64286.0000    20    64292.0000    64286.0000      607    0.01%
     67    69    64286.0000    23    64292.0000    64286.0000      617    0.01%
     68    70    64286.0000    20    64292.0000    64286.0000      619    0.01%
     69    71    64286.0000    19    64292.0000    64286.0000      630    0.01%
     70    72    64286.0000    19    64292.0000    64286.0000      634    0.01%
     71    73    64286.0000    20    64292.0000    64286.0000      648    0.01%
     72    74    64286.0000    20    64292.0000    64286.0000      663    0.01%
Elapsed time = 6.57 sec. (5375.31 ticks, tree = 0.28 MB, solutions = 852)
     96    98    64286.0000    21    64292.0000    64286.0000      843    0.01%
     97    99    64286.0000    20    64292.0000    64286.0000      846    0.01%
     98   100    64286.0000    21    64292.0000    64286.0000      853    0.01%
     99   101    64286.0000    20    64292.0000    64286.0000      854    0.01%
    100   102    64286.0000    19    64292.0000    64286.0000      859    0.01%
    101   103    64286.0000    20    64292.0000    64286.0000      866    0.01%
    102   104    64286.0000    19    64292.0000    64286.0000      869    0.01%
    103   105    64286.0000    21    64292.0000    64286.0000      877    0.01%
    104   106    64286.0000    19    64292.0000    64286.0000      879    0.01%
    105   107    64286.0000    20    64292.0000    64286.0000      884    0.01%
Elapsed time = 8.45 sec. (6764.11 ticks, tree = 0.40 MB, solutions = 1198)
    128   130    64286.0000    21    64292.0000    64286.0000     1053    0.01%
    129   131    64286.0000    20    64292.0000    64286.0000     1057    0.01%
    130   132    64286.0000    20    64292.0000    64286.0000     1067    0.01%
    131   133    64286.0000    19    64292.0000    64286.0000     1071    0.01%
    132   134    64286.0000    20    64292.0000    64286.0000     1077    0.01%
    133   135    64286.0000    20    64292.0000    64286.0000     1083    0.01%
    134   136    64286.0000    20    64292.0000    64286.0000     1101    0.01%
    135   137    64286.0000    19    64292.0000    64286.0000     1106    0.01%
    136   138    64286.0000    19    64292.0000    64286.0000     1110    0.01%
    137   139    64286.0000    19    64292.0000    64286.0000     1116    0.01%
Elapsed time = 10.25 sec. (8095.24 ticks, tree = 0.54 MB, solutions = 1502)
    163   165    64286.0000    19    64292.0000    64286.0000     1338    0.01%
    164   166    64286.0000    20    64292.0000    64286.0000     1352    0.01%
    165   167    64286.0000    19    64292.0000    64286.0000     1361    0.01%
    166   168    64286.0000    20    64292.0000    64286.0000     1372    0.01%
    167   169    64286.0000    20    64292.0000    64286.0000     1382    0.01%
    168   170    64286.0000    20    64292.0000    64286.0000     1387    0.01%
    169   171    64286.0000    21    64292.0000    64286.0000     1395    0.01%
    170   172    64286.0000    19    64292.0000    64286.0000     1414    0.01%
    171   173    64286.0000    19    64292.0000    64286.0000     1417    0.01%
    172   174    64286.0000    19    64292.0000    64286.0000     1426    0.01%
Elapsed time = 12.03 sec. (9387.20 ticks, tree = 0.67 MB, solutions = 1759)
    198   200    64286.0000    21    64292.0000    64286.0000     1672    0.01%
    199   201    64286.0000    21    64292.0000    64286.0000     1687    0.01%
    200   202    64286.0000    20    64292.0000    64286.0000     1690    0.01%
    201   203    64286.0000    21    64292.0000    64286.0000     1705    0.01%
    202   204    64286.0000    20    64292.0000    64286.0000     1719    0.01%
    203   205    64286.0000    20    64292.0000    64286.0000     1734    0.01%
    204   206    64286.0000    20    64292.0000    64286.0000     1738    0.01%
    205   207    64286.0000    20    64292.0000    64286.0000     1755    0.01%
    206   208    64286.0000    20    64292.0000    64286.0000     1762    0.01%

Root node processing (before b&c):
  Real time             =    0.26 sec. (253.95 ticks)
Sequential b&c:
  Real time             =   13.54 sec. (10470.60 ticks)
                          ------------
Total (root+branch&cut) =   13.80 sec. (10724.55 ticks)
